p tw 172 180
1 2
2 3
11 12
101 102
102 103
104 105
105 106
107 108
108 109
109 110
110 111
12 13
112 113
113 114
114 115
114 140
115 116
116 117
117 118
117 141
118 119
119 120
120 121
13 14
13 19
121 122
122 123
123 124
123 138
124 125
125 126
126 127
127 128
128 129
129 130
130 131
14 15
131 132
132 133
133 134
134 135
135 136
136 137
137 138
138 139
139 140
15 16
141 142
142 143
143 144
144 145
144 170
145 146
146 147
147 148
147 171
148 149
149 150
150 151
16 17
151 152
152 153
152 155
153 154
154 157
155 156
156 157
157 158
158 159
159 160
160 161
17 18
161 162
161 164
162 163
163 166
164 165
165 166
166 167
167 168
168 169
169 170
171 172
19 20
20 21
3 4
21 22
22 111
22 23
23 24
24 25
25 112
25 26
26 27
27 106
27 28
28 29
29 30
30 107
30 31
4 5
31 32
32 33
33 103
33 34
34 35
35 36
36 37
37 38
38 104
38 39
39 40
40 41
5 6
41 42
42 43
43 44
44 45
45 46
46 47
47 48
48 49
49 50
50 51
6 7
51 52
52 53
53 54
54 55
55 56
56 57
57 58
58 59
59 60
60 61
7 8
61 62
62 63
63 64
64 65
65 66
66 67
67 68
68 69
69 70
70 71
8 9
71 72
72 73
73 74
74 75
75 76
76 77
77 78
78 79
79 80
80 81
9 10
81 82
82 83
83 84
84 85
85 86
86 87
87 88
88 89
89 90
90 91
10 11
10 18
91 92
92 93
93 94
94 95
95 96
96 97
97 98
98 99
99 100
100 101
